
  32    1
  10

   0   0   9 2 3 4 5 6 7 8 9 10 
   4   1   8 31 30 29 23 19 15 12 11 
   4   1   7 30 29 21 19 18 17 13 
   9   2   7 31 30 28 22 20 19 13 
   6   1   5 29 27 21 16 14 
   3   1   6 29 28 25 21 20 19 
   7   1   4 31 29 26 17 
  10   4   3 29 28 13 
   7   3   3 27 16 14 
   5   3   1 11 
   6   1   5 28 27 26 25 24 
   7   2   5 28 27 26 25 24 
   6   2   3 26 25 24 
   1   2   3 30 26 25 
  10   2   2 26 20 
   2   2   2 26 25 
   2   1   2 25 24 
   4   1   2 28 24 
   8   1   1 27 
   5   2   1 24 
   9   2   1 24 
   8   2   1 27 
   4   2   1 24 
   4   4   1 32
   2   3   1 32
   2   5   1 32
  10   1   1 32
   8   1   1 32
   7   2   1 32
   6   2   1 32
   9   3   1 32
   0   0   0 
